22 23 12 13 14 15 16 11 10 9 7 8 17 18 19 20 568 569 570 474 473 472 471 494 495 470 469 468 467 466 571 573 572 6 5 0 4 1 2 3 455 454 456 457 458 459 460 461 462 463 464 465 496 497 519 518 520 521 522 523 526 491 492 525 524 493 490 529 528 527 512 511 510 509 513 514 515 516 517 504 503 502 498 501 500 499 452 453 440 441 450 449 448 447 446 442 439 443 444 445 381 380 379 378 377 376 375 315 314 316 313 312 451 311 310 309 308 505 506 507 508 302 301 303 307 304 306 305 318 317 319 320 321 322 323 373 374 372 371 396 395 394 393 391 392 390 389 388 387 386 382 425 424 431 432 433 434 435 436 438 437 430 429 428 427 426 423 422 421 420 419 417 418 410 411 412 356 357 355 354 353 352 413 414 416 415 351 350 347 348 349 358 359 360 401 402 403 400 404 409 384 383 385 408 407 405 406 399 397 398 364 363 361 362 346 345 344 343 341 340 342 365 368 369 370 367 366 329 328 327 326 325 324 297 296 295 330 331 332 333 339 338 337 336 335 334 283 284 285 286 287 280 281 282 279 278 277 276 288 289 290 275 274 273 292 291 294 293 270 269 272 271 268 267 298 266 265 264 263 262 261 260 259 258 299 300 257 256 255 253 254 252 251 250 249 248 241 242 243 244 245 247 246 238 239 240 237 236 235 234 232 233 530 531 532 533 231 230 229 228 227 189 225 226 190 191 192 219 218 220 221 222 224 223 217 216 215 214 213 212 211 210 209 205 206 207 208 203 204 202 201 200 199 198 197 196 195 194 193 184 183 185 186 182 181 180 179 178 177 176 540 539 537 538 187 188 534 488 489 486 487 535 536 484 485 483 482 481 480 479 478 477 476 475 567 566 565 564 563 562 561 560 559 550 549 548 545 546 547 544 543 541 542 107 109 108 173 174 175 172 170 171 169 168 162 163 167 166 164 165 154 155 156 159 160 161 113 112 111 110 114 115 116 128 129 130 131 132 133 134 158 157 153 146 145 144 143 142 147 148 152 149 150 151 141 140 136 135 137 139 138 127 126 125 124 69 70 68 67 66 65 72 71 123 122 121 117 106 105 104 103 102 98 99 100 101 551 552 553 554 556 555 45 46 91 92 93 94 97 96 95 118 120 119 73 74 75 77 76 64 62 63 61 60 59 58 57 81 80 79 78 88 89 90 87 86 85 82 83 56 55 53 84 51 50 52 54 49 48 47 44 43 42 39 40 41 557 558 35 38 37 36 33 34 32 30 31 29 28 27 26 25 24 21